k = 40;
b = 20;
AtomicConstraints =  [|
1, 21|
	1, 10|
	1, 26|
	1, 25|
	1, 24|
	1, 23|
	1, 11|
	1, 28|
	1, 29|
	1, 12|
	1, 31|
	1, 13|
	1, 14|
	1, 15|
	1, 16|
	1, 17|
	1, 37|
	1, 18|
	1, 19|
	1, 20|
	1, 32|
	1, 40|
	1, 30|
	1, 36|
	1, 34|
	1, 27|
	1, 22|
	1, 33|
	1, 38|
	1, 39|
	1, 35|
	3, 1|
	3, 2|
	3, 5|
	3, 21|
	3, 10|
	3, 26|
	3, 25|
	3, 24|
	3, 23|
	3, 11|
	3, 28|
	3, 29|
	3, 12|
	3, 31|
	3, 13|
	3, 14|
	3, 15|
	3, 16|
	3, 17|
	3, 37|
	3, 18|
	3, 19|
	3, 20|
	3, 32|
	3, 40|
	3, 30|
	3, 36|
	3, 34|
	3, 27|
	3, 22|
	3, 33|
	3, 38|
	3, 39|
	3, 35|
	4, 1|
	4, 2|
	4, 5|
	4, 7|
	4, 21|
	4, 10|
	4, 26|
	4, 25|
	4, 24|
	4, 23|
	4, 11|
	4, 28|
	4, 29|
	4, 12|
	4, 31|
	4, 14|
	4, 15|
	4, 16|
	4, 37|
	4, 18|
	4, 19|
	4, 20|
	4, 32|
	4, 40|
	4, 30|
	4, 36|
	4, 34|
	4, 27|
	4, 22|
	4, 33|
	4, 38|
	4, 39|
	4, 35|
	2, 21|
	2, 10|
	2, 26|
	2, 25|
	2, 24|
	2, 23|
	2, 11|
	2, 28|
	2, 29|
	2, 12|
	2, 31|
	2, 14|
	2, 15|
	2, 16|
	2, 37|
	2, 18|
	2, 19|
	2, 20|
	2, 32|
	2, 40|
	2, 30|
	2, 36|
	2, 34|
	2, 27|
	2, 22|
	2, 33|
	2, 38|
	2, 39|
	2, 35|
	6, 2|
	6, 5|
	6, 7|
	6, 8|
	6, 10|
	6, 26|
	6, 25|
	6, 24|
	6, 23|
	6, 11|
	6, 28|
	6, 29|
	6, 12|
	6, 31|
	6, 14|
	6, 15|
	6, 16|
	6, 37|
	6, 18|
	6, 19|
	6, 20|
	6, 32|
	6, 40|
	6, 30|
	6, 36|
	6, 34|
	6, 27|
	6, 22|
	6, 33|
	6, 38|
	6, 39|
	6, 35|
	5, 10|
	5, 26|
	5, 25|
	5, 24|
	5, 23|
	5, 11|
	5, 28|
	5, 29|
	5, 12|
	5, 31|
	5, 14|
	5, 15|
	5, 16|
	5, 37|
	5, 18|
	5, 19|
	5, 20|
	5, 32|
	5, 40|
	5, 30|
	5, 36|
	5, 34|
	5, 27|
	5, 22|
	5, 33|
	5, 38|
	5, 39|
	5, 35|
	7, 25|
	7, 24|
	7, 23|
	7, 11|
	7, 28|
	7, 29|
	7, 12|
	7, 31|
	7, 14|
	7, 15|
	7, 16|
	7, 37|
	7, 18|
	7, 19|
	7, 20|
	7, 32|
	7, 40|
	7, 30|
	7, 36|
	7, 22|
	7, 33|
	7, 38|
	7, 39|
	7, 35|
	8, 23|
	8, 11|
	8, 28|
	8, 29|
	8, 12|
	8, 31|
	8, 14|
	8, 15|
	8, 16|
	8, 37|
	8, 18|
	8, 19|
	8, 20|
	8, 32|
	8, 40|
	8, 30|
	8, 36|
	8, 22|
	8, 33|
	8, 38|
	8, 39|
	8, 35|
	9, 28|
	9, 29|
	9, 12|
	9, 31|
	9, 14|
	9, 15|
	9, 16|
	9, 37|
	9, 18|
	9, 19|
	9, 20|
	9, 32|
	9, 40|
	9, 30|
	9, 36|
	9, 22|
	9, 33|
	9, 38|
	9, 39|
	9, 35|
	21, 34|
	21, 27|
	21, 22|
	21, 33|
	21, 38|
	26, 21|
	26, 10|
	26, 25|
	26, 11|
	26, 34|
	26, 27|
	26, 22|
	26, 33|
	26, 38|
	10, 34|
	10, 27|
	10, 22|
	10, 33|
	10, 38|
	24, 10|
	24, 25|
	24, 11|
	24, 28|
	24, 34|
	24, 27|
	24, 22|
	24, 33|
	24, 38|
	24, 39|
	23, 25|
	23, 11|
	23, 28|
	23, 29|
	23, 22|
	23, 33|
	23, 38|
	23, 39|
	25, 34|
	25, 27|
	25, 22|
	25, 33|
	25, 38|
	11, 22|
	11, 33|
	11, 38|
	28, 22|
	28, 33|
	28, 38|
	28, 39|
	29, 22|
	29, 33|
	29, 38|
	29, 39|
	12, 31|
	12, 37|
	12, 18|
	12, 19|
	12, 20|
	12, 33|
	12, 38|
	12, 39|
	12, 35|
	31, 37|
	31, 18|
	31, 19|
	31, 20|
	31, 33|
	31, 38|
	31, 39|
	31, 35|
	14, 23|
	14, 11|
	14, 28|
	14, 29|
	14, 32|
	14, 40|
	14, 30|
	14, 36|
	14, 22|
	14, 33|
	14, 38|
	14, 39|
	14, 35|
	15, 28|
	15, 29|
	15, 32|
	15, 40|
	15, 30|
	15, 36|
	15, 22|
	15, 33|
	15, 38|
	15, 39|
	15, 35|
	13, 21|
	13, 10|
	13, 26|
	13, 25|
	13, 24|
	13, 23|
	13, 11|
	13, 28|
	13, 29|
	13, 17|
	13, 32|
	13, 40|
	13, 30|
	13, 36|
	13, 34|
	13, 27|
	13, 22|
	13, 33|
	13, 38|
	13, 39|
	13, 35|
	16, 28|
	16, 29|
	16, 14|
	16, 15|
	16, 32|
	16, 40|
	16, 30|
	16, 36|
	16, 22|
	16, 33|
	16, 38|
	16, 39|
	16, 35|
	17, 21|
	17, 10|
	17, 26|
	17, 25|
	17, 24|
	17, 23|
	17, 11|
	17, 28|
	17, 29|
	17, 32|
	17, 40|
	17, 30|
	17, 36|
	17, 34|
	17, 27|
	17, 22|
	17, 33|
	17, 38|
	17, 39|
	17, 35|
	37, 20|
	37, 33|
	37, 38|
	37, 39|
	37, 35|
	18, 20|
	18, 33|
	18, 38|
	18, 39|
	18, 35|
	19, 20|
	19, 33|
	19, 38|
	19, 39|
	19, 35|
	20, 33|
	20, 38|
	20, 39|
	20, 35|
	32, 30|
	32, 36|
	32, 22|
	32, 33|
	32, 38|
	32, 39|
	32, 35|
	40, 30|
	40, 36|
	40, 22|
	40, 33|
	40, 38|
	40, 39|
	40, 35|
	30, 22|
	30, 33|
	30, 38|
	30, 39|
	30, 35|
	36, 22|
	36, 33|
	36, 38|
	36, 39|
	36, 35|
	34, 27|
	33, 38|];
DisjunctiveConstraints =  [|1, 13, 33, 1|
	4, 3, 4, 6|
	4, 26, 4, 6|
	4, 10, 4, 30|
	4, 13, 33, 4|
	4, 17, 37, 4|
	4, 34, 4, 14|
	4, 27, 4, 7|
	2, 1, 2, 5|
	2, 26, 2, 6|
	2, 10, 2, 30|
	2, 13, 33, 2|
	2, 17, 37, 2|
	2, 34, 2, 14|
	2, 27, 2, 7|
	6, 24, 6, 4|
	5, 2, 5, 7|
	5, 24, 5, 4|
	7, 5, 7, 8|
	7, 23, 7, 3|
	7, 11, 7, 31|
	7, 34, 7, 14|
	8, 7, 8, 9|
	8, 34, 8, 14|
	9, 21, 1, 9|
	9, 14, 34, 9|
	9, 36, 9, 16|
	9, 35, 9, 15|
	26, 34, 26, 14|
	26, 27, 26, 7|
	10, 21, 10, 25|
	10, 34, 10, 14|
	10, 27, 10, 7|
	24, 26, 24, 23|
	23, 34, 14, 23|
	23, 27, 7, 23|
	25, 10, 25, 11|
	11, 25, 11, 28|
	11, 34, 14, 11|
	11, 27, 7, 11|
	28, 11, 28, 29|
	14, 26, 6, 14|
	14, 10, 30, 14|
	14, 11, 14, 31|
	14, 28, 14, 8|
	15, 24, 4, 15|
	15, 25, 5, 15|
	15, 29, 15, 9|
	16, 24, 4, 16|
	16, 25, 5, 16|
	16, 29, 16, 9|
	18, 37, 18, 19|
	18, 33, 18, 13|
	19, 33, 19, 13|
	19, 38, 19, 18|
	20, 33, 20, 13|];
SoftAtomicConstraints =  [|
1, 2|
3, 4|
2, 5|
4, 6|
5, 7|
7, 8|
8, 9|
21, 10|
25, 11|
17, 14|
14, 15|
13, 16|
37, 18|
18, 19|
34, 22|
24, 23|
26, 24|
10, 25|
11, 28|
28, 29|
22, 33|
38, 35|
30, 36|
27, 38|
33, 39|
32, 40|];
DirectSuccessors =  [];
